NAME: tsp5_13
COMMENT: 5-tsp problem (Padberg/Rinaldi)
TYPE: TSP
DIMENSION: 5
EDGE_WEIGHT_TYPE : EUC_2D
NODE_COORD_SECTION
1.00 1.96 32.13
2.00 11.34 32.11
3.00 37.16 39.26
4.00 36.48 18.61
5.00 6.78 25.31
